CMPL model generation - running

CMPL version: 1.11.0
Authors: Thomas Schleiff, Mike Steglich
Distributed under the GPLv3 

create model instance ...
write model instance ...
CMPL model generation - finished

Solver - running


Welcome to IBM(R) ILOG(R) CPLEX(R) Interactive Optimizer 12.7.1.0
  with Simplex, Mixed Integer & Barrier Optimizers
5725-A06 5725-A29 5724-Y48 5724-Y49 5724-Y54 5724-Y55 5655-Y21
Copyright IBM Corp. 1988, 2017.  All Rights Reserved.

Type 'help' for a list of available commands.
Type 'help' followed by a command name for more
information on commands.

CPLEX> Specified objective sense: MINIMIZE
Selected objective  name:  line[1]
Selected RHS        name:  RHS
Selected bound      name:  BOUND
Problem '/tmp/cmpl.T24958.mps' read.
Read time = 0.07 sec. (8.25 ticks)
CPLEX> CPXPARAM_Read_APIEncoding                        "UTF-8"
Tried aggregator 3 times.
MIP Presolve eliminated 18396 rows and 29036 columns.
MIP Presolve modified 585 coefficients.
Aggregator did 1406 substitutions.
Reduced MIP has 2553 rows, 4151 columns, and 12153 nonzeros.
Reduced MIP has 3983 binaries, 0 generals, 0 SOSs, and 0 indicators.
Presolve time = 0.08 sec. (45.17 ticks)
Found incumbent of value 3751.554688 after 0.17 sec. (94.03 ticks)
Probing time = 0.01 sec. (2.66 ticks)
Tried aggregator 2 times.
MIP Presolve eliminated 3 rows and 41 columns.
MIP Presolve modified 11 coefficients.
Aggregator did 2 substitutions.
Reduced MIP has 2548 rows, 4108 columns, and 12061 nonzeros.
Reduced MIP has 4108 binaries, 0 generals, 0 SOSs, and 0 indicators.
Presolve time = 0.02 sec. (14.72 ticks)
Probing time = 0.01 sec. (2.82 ticks)
Clique table members: 3531.
MIP emphasis: balance optimality and feasibility.
MIP search method: dynamic search.
Parallel mode: none, using 1 thread.
Root relaxation solution time = 0.04 sec. (15.80 ticks)

        Nodes                                         Cuts/
   Node  Left     Objective  IInf  Best Integer    Best Bound    ItCnt     Gap

*     0+    0                         3751.5547        0.0000           100.00%
*     0     0      integral     0     1737.9969     1737.9969     1081    0.00%
Elapsed time = 0.27 sec. (138.36 ticks, tree = 0.00 MB, solutions = 2)

Root node processing (before b&c):
  Real time             =    0.27 sec. (139.65 ticks)
Sequential b&c:
  Real time             =    0.00 sec. (0.00 ticks)
                          ------------
Total (root+branch&cut) =    0.27 sec. (139.65 ticks)

Solution pool: 2 solutions saved.

MIP - Integer optimal solution:  Objective =  1.7379969000e+03
Solution time =    0.27 sec.  Iterations = 1081  Nodes = 0
Deterministic time = 139.74 ticks  (517.40 ticks/sec)

CPLEX> Incumbent solution written to file '/tmp/cmpl.T24958.gsol'.
CPLEX> 
CMPL: Time used for model generation: 2 seconds
CMPL: Time used for solving the model: 1 seconds


Solution written to ASCII file: results/output_generated_conf_1/2017-02-06-4/fair-nonlinear.sol

Solver - finished
